%nproc=28
%mem=32GB
#p PBE1PBE/6-311++G(d,p) SCRF=(CPCM,solvent=water,read) SCF=(Tight,MaxCycle=200)

x

0 1
 6                    0    -0.67507  -0.65957   0.30238 
 6                    0    -1.08367  -1.6922   -0.38369 
 1                    0    -1.12133  -2.69803   0.04075 
 6                    0    -0.2741    0.41075   0.95361 
 1                    0    -1.00459   0.99403   1.51174 
 1                    0    -1.31037   0.45913  -2.18921 
 7                    0     1.01601   0.93109   0.97896 
 1                    0     1.70978   0.37063   0.49131 
 6                    0     1.48216   1.5535    2.21589 
 6                    0     2.87637   1.11363   2.61058 
 6                    0     3.42105  -0.16565   2.56899 
 6                    0     3.62259   2.20068   3.07152 
 6                    0     4.74524  -0.34515   2.973 
 1                    0     2.8264   -1.01502   2.23521 
 1                    0     5.185    -1.33713   2.96352 
 6                    0     5.51013   0.74489   3.39696 
 1                    0     6.54352   0.59226   3.69376 
 6                    0     4.95003   2.02504   3.45517 
 1                    0     5.54319   2.86863   3.79872 
 6                    0     2.77662   3.45255   3.08715 
 1                    0     2.41139   3.63336   4.1063 
 1                    0     3.32289   4.34554   2.77109 
 6                    0     1.61576   3.09237   2.13961 
 1                    0     1.88117   3.35364   1.1078 
 1                    0     0.68096   3.59979   2.39488 
 1                    0     0.78366   1.28184   3.02119 
 6                    0     6.0992   -2.80808   0.81706 
 6                    0     5.89774  -3.82912  -0.302 
 1                    0     6.86467  -4.1471   -0.7123 
 1                    0     5.36563  -4.71701   0.05157 
 1                    0     5.3062   -3.40447  -1.12033 
 6                    0     6.85585  -3.40631   2.00939 
 1                    0     7.83035  -3.7768    1.66096 
 1                    0     7.07765  -2.60294   2.72616 
 6                    0     6.09814  -4.52211   2.72674 
 1                    0     6.62771  -4.84369   3.62826 
 1                    0     5.09937  -4.1816    3.02507 
 1                    0     5.9702   -5.40039   2.08761 
 6                    0     6.1521   -1.2288   -3.40716 
 6                    0     5.0993   -0.14261  -3.19891 
 1                    0     5.30007   0.40752  -2.26989 
 1                    0     5.16613   0.59424  -4.00609 
 6                    0     3.6735   -0.70792  -3.1842 
 1                    0     2.93213   0.09661  -3.19454 
 1                    0     3.49569  -1.32186  -4.07144 
 6                    0     3.37995  -1.58132  -1.9828 
 8                    0     3.01669  -2.76429  -2.10452 
 7                    0     3.53095  -1.01583  -0.76926 
 1                    0     3.99604  -0.12207  -0.62574 
 1                    0     3.38211  -1.60258   0.04707 
 6                    0     3.40007   7.08587  -2.55641 
 6                    0     2.54032   6.40919  -1.48338 
 1                    0     2.42783   7.0815   -0.6247 
 1                    0     1.53303   6.22927  -1.87776 
 6                    0     3.13722   5.099    -1.02765 
 6                    0     4.10335   5.05296  -0.01886 
 1                    0     4.40553   5.97403   0.47491 
 6                    0     4.69515   3.85232   0.36515 
 1                    0     5.45041   3.83194   1.14658 
 6                    0     4.29928   2.66482  -0.24783 
 8                    0     4.84669   1.45197   0.08389 
 1                    0     5.21662   1.47747   0.98537 
 6                    0     3.33488   2.68546  -1.25357 
 1                    0     3.01089   1.75214  -1.70683 
 6                    0     2.77418   3.89743  -1.64232 
 1                    0     2.02148   3.9068   -2.4261 
 6                    0    -0.35463   5.49822   0.56808 
 6                    0    -1.29497   4.32471   0.27798 
 1                    0    -1.02235   3.46757   0.90532 
 1                    0    -2.31698   4.6043    0.55955 
 6                    0    -1.25832   3.91303  -1.17257 
 6                    0    -2.04431   4.57573  -2.1214 
 1                    0    -2.69873   5.38313  -1.79807 
 6                    0    -2.0104    4.20716  -3.46545 
 1                    0    -2.63843   4.72492  -4.18424 
 6                    0    -1.1759    3.17188  -3.88359 
 1                    0    -1.15121   2.87766  -4.92814 
 6                    0    -0.37175   2.5167   -2.95115 
 1                    0     0.28119   1.70512  -3.26573 
 6                    0    -0.41667   2.88175  -1.60369 
 1                    0     0.21353   2.36792  -0.87728 
 6                    0    -6.62104   1.31618   3.3212 
 6                    0    -6.87197   1.58515   1.8439 
 1                    0    -5.92289   1.77394   1.33683 
 1                    0    -7.52022   2.45621   1.70477 
 16                   0    -7.64913   0.14053   1.0497 
 6                    0    -7.366     0.57272  -0.71147 
 1                    0    -7.73296   1.58804  -0.88051 
 1                    0    -8.01816  -0.10555  -1.26891 
 6                    0    -5.93359   0.40791  -1.15347 
 6                    0    -5.4462   -0.89227  -1.32602 
 6                    0    -4.13499  -1.13203  -1.72101 
 1                    0    -6.12133  -1.72435  -1.15134 
 6                    0    -5.08278   1.49923  -1.39489 
 6                    0    -5.55744   2.93166  -1.31623 
 1                    0    -6.30272   3.14404  -2.09094 
 1                    0    -6.01795   3.16961  -0.35238 
 1                    0    -4.71697   3.61497  -1.46571 
 6                    0    -3.75344   1.25063  -1.74719 
 1                    0    -3.07614   2.08315  -1.92193 
 6                    0    -3.2634   -0.04375  -1.89763 
 7                    0    -1.96681  -0.30772  -2.31518 
 6                    0    -1.41644  -1.56922  -1.88972 
 6                    0    -0.06566  -1.73027  -2.57242 
 8                    0     0.67745  -0.77596  -2.71368 
 7                    0     0.25793  -3.00822  -2.89942 
 1                    0     1.23853  -3.19815  -3.10968 
 6                    0    -0.631    -4.10095  -2.88777 
 8                    0    -0.19302  -5.20546  -3.14332 
 7                    0    -1.96754  -3.87386  -2.62763 
 6                    0    -2.36414  -2.69448  -2.24594 
 7                    0    -3.67479  -2.43727  -2.04323 
 6                    0    -4.67156  -3.48294  -2.2663 
 6                    0    -4.58639  -2.4425    2.972 
 6                    0    -3.42019  -1.85384   2.17413 
 1                    0    -2.51615  -2.45694   2.33084 
 1                    0    -3.64557  -1.90824   1.10171 
 6                    0    -3.13792  -0.41279   2.51999 
 6                    0    -3.58057   0.60804   1.67652 
 1                    0    -4.12436   0.34268   0.77368 
 6                    0    -3.32874   1.94852   1.95322 
 1                    0    -3.66291   2.73227   1.2779 
 6                    0    -2.61631   2.29231   3.10328 
 8                    0    -2.37089   3.61588   3.3269 
 1                    0    -1.87977   3.71542   4.15632 
 6                    0    -2.1736    1.28736   3.96829 
 1                    0    -1.61652   1.55189   4.86419 
 6                    0    -2.43607  -0.04886   3.67224 
 1                    0    -2.07095  -0.82152   4.34535 
 6                    0    -3.41951  -5.04406   0.4805 
 6                    0    -2.43133  -5.48998   1.56193 
 1                    0    -2.76322  -5.12189   2.54027 
 1                    0    -2.43536  -6.58552   1.62378 
 6                    0    -1.02808  -4.99357   1.29721 
 6                    0    -0.3363   -4.22138   2.23482 
 1                    0    -0.80569  -3.99818   3.19056 
 6                    0     0.93806  -3.72293   1.9735 
 1                    0     1.46423  -3.11957   2.70704 
 6                    0     1.54757  -3.99819   0.75108 
 8                    0     2.79683  -3.50642   0.5105 
 1                    0     2.95109  -3.51074  -0.4659 
 6                    0     0.8843   -4.78596  -0.19221 
 1                    0     1.36149  -5.01309  -1.14194 
 6                    0    -0.38895  -5.27202   0.08349 
 1                    0    -0.8895   -5.86947  -0.67484 
 1                    0    -6.19072   2.20575   3.79086 
 1                    0    -5.91364   0.49086   3.44744 
 1                    0    -7.54849   1.06706   3.84573 
 1                    0    -5.15578  -3.74786  -1.32261 
 1                    0    -4.16659  -4.35495  -2.67207 
 1                    0    -5.42229  -3.11747  -2.97093 
 1                    0     0.68017   5.23257   0.32588 
 1                    0    -0.40052   5.78077   1.62484 
 1                    0    -0.6286    6.37176  -0.03341 
 1                    0     3.50165   6.43751  -3.43228 
 1                    0     4.40458   7.29122  -2.17301 
 1                    0     2.95598   8.03199  -2.87909 
 6                    0     6.81586  -1.56098   0.30021 
 1                    0     5.10066  -2.51463   1.17152 
 1                    0     7.80804  -1.82139  -0.0894 
 1                    0     6.9514   -0.82161   1.0987 
 1                    0     6.25195  -1.08157  -0.50689 
 1                    0    -3.14109  -5.44109  -0.5009 
 1                    0    -3.42699  -3.95104   0.39785 
 1                    0    -4.43581  -5.38117   0.7094 
 1                    0     7.16229  -0.81007  -3.38861 
 1                    0     6.00575  -1.72594  -4.37153 
 1                    0     6.0965   -1.99615  -2.62768 
 1                    0    -5.5087   -1.88847   2.76693 
 1                    0    -4.39056  -2.39056   4.04822 
 1                    0    -4.7531   -3.49177   2.70551 
 
eps=4.0
