%nproc=28
%mem=32GB
#p PBE1PBE/6-311++G(d,p) SCRF=(CPCM,solvent=water,read) SCF=(Tight,MaxCycle=200)

x

0 1
 6                    0     0.17795  -0.08787   0.10711 
 6                    0     1.4911    0.13763   0.49223 
 1                    0     1.97813   1.04927   0.15835 
 6                    0    -0.36504   0.79575  -0.81817 
 1                    0     0.23503   1.61868  -1.21142 
 1                    0    -0.40898  -0.91469   0.48227 
 7                    0    -1.58912   0.70488  -1.29336 
 1                    0    -2.17842  -0.06019  -0.94798 
 6                    0    -2.1331    1.6257   -2.28289 
 6                    0    -3.59161   1.35739  -2.56899 
 6                    0    -4.24533   0.13186  -2.65247 
 6                    0    -4.27351   2.56048  -2.75039 
 6                    0    -5.61863   0.12563  -2.90896 
 1                    0    -3.70795  -0.8026   -2.49678 
 1                    0    -6.15002  -0.82044  -2.9687 
 6                    0    -6.30526   1.32724  -3.1045 
 1                    0    -7.37146   1.30808  -3.30758 
 6                    0    -5.63569   2.55032  -3.03425 
 1                    0    -6.17886   3.48129  -3.17134 
 6                    0    -3.34126   3.73545  -2.557 
 1                    0    -3.04962   4.15757  -3.52693 
 1                    0    -3.79618   4.54054  -1.97145 
 6                    0    -2.13011   3.10489  -1.83613 
 1                    0    -2.28814   3.12973  -0.7509 
 1                    0    -1.186     3.61212  -2.059 
 1                    0    -1.55154   1.5081   -3.2089 
 6                    0    -5.29882  -3.40626  -1.36944 
 6                    0    -4.48842  -4.65101  -1.00421 
 1                    0    -5.12609  -5.38206  -0.49081 
 1                    0    -4.05933  -5.13541  -1.88646 
 1                    0    -3.66609  -4.39234  -0.32962 
 6                    0    -6.53463  -3.75083  -2.20858 
 1                    0    -7.15886  -4.4555   -1.64103 
 1                    0    -7.14281  -2.84488  -2.33823 
 6                    0    -6.20768  -4.33629  -3.58055 
 1                    0    -7.11575  -4.50127  -4.1678 
 1                    0    -5.56014  -3.65637  -4.1463 
 1                    0    -5.68942  -5.29589  -3.49502 
 6                    0    -4.83557  -3.85515   4.83355 
 6                    0    -3.53     -3.16583   5.22437 
 1                    0    -3.72112  -2.12144   5.49991 
 1                    0    -3.11653  -3.63616   6.12225 
 6                    0    -2.46992  -3.24652   4.12242 
 1                    0    -1.53845  -2.75598   4.43158 
 1                    0    -2.23996  -4.29549   3.90914 
 6                    0    -2.85206  -2.6107    2.80099 
 8                    0    -2.55242  -3.15304   1.72456 
 7                    0    -3.51921  -1.45183   2.85086 
 1                    0    -3.68694  -0.98137   3.72787 
 1                    0    -3.71604  -0.95228   1.98617 
 6                    0    -4.73311   5.68954   3.34017 
 6                    0    -3.78947   5.49164   2.14902 
 1                    0    -4.07122   6.17591   1.33943 
 1                    0    -2.7659    5.75152   2.44332 
 6                    0    -3.8108    4.06824   1.64545 
 6                    0    -4.82794   3.61849   0.79809 
 1                    0    -5.58987   4.31596   0.45591 
 6                    0    -4.88986   2.29045   0.38608 
 1                    0    -5.68076   1.9475   -0.27772 
 6                    0    -3.90787   1.39975   0.81092 
 8                    0    -3.90516   0.08311   0.41561 
 1                    0    -4.61449  -0.07672  -0.23126 
 6                    0    -2.8762    1.82042   1.64728 
 1                    0    -2.10341   1.11505   1.94685 
 6                    0    -2.84323   3.14884   2.06275 
 1                    0    -2.04129   3.48131   2.71746 
 6                    0    -1.10566   6.0633   -0.10925 
 6                    0     0.26625   5.43694   0.16009 
 1                    0     0.51284   4.74549  -0.65373 
 1                    0     1.03131   6.22337   0.14398 
 6                    0     0.32477   4.69318   1.47422 
 6                    0     0.16188   5.3579    2.69473 
 1                    0     0.01444   6.43592   2.70295 
 6                    0     0.19277   4.65605   3.89819 
 1                    0     0.06848   5.18916   4.83613 
 6                    0     0.38264   3.27327   3.90287 
 1                    0     0.39982   2.72814   4.84133 
 6                    0     0.54313   2.5958    2.69542 
 1                    0     0.66402   1.5137    2.68611 
 6                    0     0.51882   3.31104   1.49807 
 1                    0     0.63726   2.79259   0.55181 
 6                    0     8.01966   1.72396  -2.6793 
 6                    0     7.71116   1.74808  -1.18719 
 1                    0     6.63254   1.66072  -1.01559 
 1                    0     8.05909   2.6827   -0.73629 
 16                   0     8.54787   0.35076  -0.3705 
 6                    0     7.85725   0.49995   1.31961 
 1                    0     8.1155    1.48209   1.721 
 1                    0     8.40094  -0.24782   1.90369 
 6                    0     6.37306   0.23804   1.37713 
 6                    0     5.93253  -1.0756    1.19587 
 6                    0     4.57578  -1.40137   1.17018 
 1                    0     6.67708  -1.84738   1.03472 
 6                    0     5.44896   1.27289   1.58648 
 6                    0     5.86767   2.70096   1.83977 
 1                    0     6.45826   2.79089   2.75762 
 1                    0     6.47465   3.10061   1.02115 
 1                    0     4.98917   3.34187   1.94534 
 6                    0     4.09006   0.9461    1.58049 
 1                    0     3.34901   1.72238   1.76027 
 6                    0     3.65894  -0.35064   1.34599 
 7                    0     2.28022  -0.66878   1.19419 
 6                    0     1.91595  -1.98844   1.574 
 6                    0     0.68699  -2.2691    2.23147 
 8                    0    -0.12693  -1.44155   2.67092 
 7                    0     0.44595  -3.63297   2.33956 
 1                    0    -0.51115  -3.89495   2.55286 
 6                    0     1.24738  -4.65075   1.81372 
 8                    0     0.78662  -5.78889   1.74369 
 7                    0     2.51795  -4.32171   1.43453 
 6                    0     2.81416  -3.03666   1.32207 
 7                    0     4.11641  -2.70164   0.94496 
 6                    0     5.09923  -3.75278   0.72668 
 6                    0     4.79749  -0.56466  -2.13284 
 6                    0     3.28321  -0.60357  -2.34652 
 1                    0     3.0455   -1.26561  -3.18789 
 1                    0     2.80321  -1.06593  -1.46952 
 6                    0     2.66438   0.75401  -2.60811 
 6                    0     3.05189   1.8921   -1.88731 
 1                    0     3.83763   1.81546  -1.13779 
 6                    0     2.44839   3.12981  -2.08933 
 1                    0     2.75694   4.00404  -1.52404 
 6                    0     1.44985   3.2633   -3.05689 
 8                    0     0.8982    4.49951  -3.22634 
 1                    0     0.25693   4.47242  -3.95321 
 6                    0     1.06093   2.15053  -3.80298 
 1                    0     0.30218   2.2532   -4.57563 
 6                    0     1.66212   0.91373  -3.56812 
 1                    0     1.34318   0.05491  -4.1533 
 6                    0     3.4418   -4.39857  -2.10706 
 6                    0     2.27002  -4.43528  -3.09117 
 1                    0     2.53127  -3.88983  -4.00562 
 1                    0     2.08667  -5.47491  -3.39102 
 6                    0     1.01213  -3.8421   -2.4995 
 6                    0     0.35338  -2.77248  -3.10817 
 1                    0     0.73507  -2.37983  -4.04859 
 6                    0    -0.78351  -2.19851  -2.54412 
 1                    0    -1.27707  -1.3583   -3.02507 
 6                    0    -1.27891  -2.69208  -1.33747 
 8                    0    -2.35722  -2.06618  -0.77429 
 1                    0    -2.50767  -2.4208    0.13977 
 6                    0    -0.65703  -3.78576  -0.72887 
 1                    0    -1.05376  -4.18744   0.19849 
 6                    0     0.47604  -4.34532  -1.30909 
 1                    0     0.94653  -5.18859  -0.80863 
 1                    0     7.51527   2.55536  -3.17907 
 1                    0     7.67598   0.79044  -3.13353 
 1                    0     9.09413   1.81788  -2.86072 
 1                    0     5.7037   -3.51301  -0.153 
 1                    0     4.56633  -4.68477   0.56616 
 1                    0     5.75659  -3.86292   1.5971 
 1                    0    -1.89483   5.30579  -0.04857 
 1                    0    -1.13416   6.51594  -1.10562 
 1                    0    -1.33702   6.84226   0.62459 
 1                    0    -4.44755   5.03324   4.16822 
 1                    0    -5.76414   5.44865   3.06206 
 1                    0    -4.70756   6.7234    3.69675 
 6                    0    -5.70268  -2.65284  -0.10322 
 1                    0    -4.65078  -2.74783  -1.96648 
 1                    0    -6.36997  -3.26627   0.5152 
 1                    0    -6.23942  -1.72484  -0.34256 
 1                    0    -4.8235   -2.41006   0.50313 
 1                    0     3.20517  -4.97045  -1.20456 
 1                    0     3.64876  -3.36983  -1.7896 
 1                    0     4.35089  -4.8153   -2.55215 
 1                    0    -5.56536  -3.80908   5.64632 
 1                    0    -4.6581   -4.90916   4.59662 
 1                    0    -5.2822   -3.38331   3.95191 
 1                    0     5.06562   0.01899  -1.24595 
 1                    0     5.3013   -0.12369  -2.99936 
 1                    0     5.19261  -1.57456  -1.98029 

eps=4.0
