%chk=1.chk
%nproc=28
%mem=32GB
#p PBE1PBE/6-311++G(d,p) SCRF=(CPCM,solvent=water,read) SCF=(Tight,MaxCycle=200)

x

0 1
 C     0.078005     0.918280     0.695267
 C    -0.142648     1.674847     1.611848
 H    -0.331321     2.354392     2.416469
 C     0.386717     0.035910    -0.450279
 H     1.376768    -0.410543    -0.296088
 H     0.459582     0.644628    -1.356612
 N    -0.552612    -1.045583    -0.657997
 C    -0.451079    -2.170081     0.253738
 H     0.606262    -2.405703     0.396637
 H    -0.945265    -3.042025    -0.183280
 H    -0.903283    -1.955043     1.233428
 C    -1.807756    -0.750131    -1.136920
 C    -2.948399    -1.537115    -1.107439
 C    -3.963333    -0.816537    -1.824011
 H    -3.030515    -2.511665    -0.649871
 C    -3.388871     0.412224    -2.234275
 C    -5.300264    -1.084269    -2.164270
 C    -4.093414     1.353955    -2.983620
 N    -2.083806     0.436988    -1.776305
 C    -5.407953     1.055991    -3.318668
 H    -3.625464     2.286595    -3.279789
 C    -6.005631    -0.150222    -2.909253
 H    -5.983980     1.767857    -3.901567
 H    -7.037424    -0.351433    -3.181838
 H    -1.434753     1.203338    -1.931383
 H    -5.767681    -2.016196    -1.856426
 C    -5.218714    -1.812491     4.079566
 C    -3.883239    -2.548911     4.185759
 H    -4.059358    -3.612560     3.960034
 C    -2.890495    -1.992456     3.164526
 H    -2.672414    -0.939867     3.389626
 H    -1.943235    -2.543218     3.166983
 H    -3.294431    -2.042970     2.144667
 C    -3.332460    -2.465171     5.614155
 H    -3.161796    -1.408593     5.863716
 H    -4.102837    -2.826174     6.307176
 C    -2.047186    -3.261496     5.834396
 H    -1.209939    -2.846420     5.264419
 H    -1.758231    -3.262441     6.889298
 H    -2.182242    -4.305747     5.526137
 C    -6.189221     3.010032     0.721898
 C    -6.132937     1.548571     0.286500
 H    -7.106702     1.231967    -0.101863
 H    -5.419745     1.429660    -0.537522
 C    -5.741607     0.608558     1.439256
 H    -6.463044     0.669433     2.258667
 H    -5.709766    -0.426020     1.074405
 C    -4.384289     0.984826     1.994578
 O    -4.211525     1.502298     3.087395
 N    -3.343257     0.800153     1.109640
 H    -3.448429     0.052711     0.422421
 H    -2.410952     0.837749     1.516759
 C    -4.464416    -6.153351    -2.204960
 C    -3.331533    -5.123056    -2.156675
 H    -2.685792    -5.247387    -3.034054
 H    -3.752372    -4.110826    -2.223064
 C    -2.492231    -5.245145    -0.905340
 C    -1.168911    -5.692093    -0.959314
 H    -0.730759    -5.938399    -1.923134
 C    -0.394342    -5.830452     0.188335
 H     0.636241    -6.165376     0.135291
 C    -0.952588    -5.523272     1.426528
 O    -0.165566    -5.694798     2.539610
 H    -0.662155    -5.460354     3.338731
 C    -2.269328    -5.075281     1.513544
 H    -2.701214    -4.835241     2.482459
 C    -3.024978    -4.940496     0.352288
 H    -4.051472    -4.586955     0.431008
 C    -0.360159    -3.067507    -3.288240
 C    -0.483240    -1.672816    -3.852478
 C     0.514817    -0.719113    -3.643964
 H     1.381546    -0.992811    -3.045167
 C     0.391076     0.577550    -4.139162
 H     1.161175     1.311842    -3.920887
 C    -0.739878     0.932762    -4.873396
 H    -0.847481     1.943706    -5.255243
 C    -1.738946    -0.012780    -5.100029
 H    -2.633121     0.262434    -5.651782
 C    -1.612740    -1.301522    -4.587169
 H    -2.413521    -2.023627    -4.736466
 C     6.576170    -3.065422     2.010992
 C     6.860059    -2.583569     0.594329
 H     5.934435    -2.239288     0.123303
 H     7.284205    -3.384111    -0.019177
 S     8.030835    -1.185304     0.636145
 C     7.782717    -0.520548    -1.049612
 H     7.988583    -1.305898    -1.778647
 H     8.553991     0.246174    -1.165217
 C     6.414882     0.088971    -1.244549
 C     6.113241     1.238210    -0.525281
 C     4.853765     1.840030    -0.625374
 H     6.868398     1.647709     0.136456
 C     5.458456    -0.492960    -2.117464
 C     5.764507    -1.730419    -2.923317
 H     4.887356    -2.035010    -3.497714
 H     6.585011    -1.557525    -3.627187
 H     6.054099    -2.569319    -2.281619
 C     4.219150     0.112971    -2.220138
 H     3.456169    -0.287692    -2.881050
 C     3.889623     1.261348    -1.480648
 N     2.632380     1.795421    -1.608104
 C     2.329452     2.822080    -0.886295
 C     0.941766     3.381966    -0.988765
 O     0.084486     2.913085    -1.716356
 N     0.740825     4.465219    -0.182133
 H    -0.186402     4.891989    -0.196000
 C     1.681619     5.073474     0.673540
 O     1.345855     6.048107     1.315797
 N     2.951263     4.541537     0.748905
 C     3.252078     3.498260     0.029423
 N     4.519167     2.981948     0.082153
 C     5.549989     3.666523     0.867401
 C     4.413876     0.820242     2.783225
 C     3.020934     0.525855     2.220818
 H     2.258234     0.947386     2.882097
 H     2.897506     1.032115     1.253219
 C     2.780384    -0.953327     2.048632
 C     1.973958    -1.674831     2.929389
 H     1.453070    -1.150628     3.727410
 C     1.828399    -3.055634     2.814893
 H     1.204955    -3.602550     3.516262
 C     2.489622    -3.744025     1.794942
 O     2.408782    -5.092650     1.652825
 H     1.662133    -5.421549     2.189457
 C     3.280891    -3.034066     0.885703
 H     3.775995    -3.576632     0.084906
 C     3.421131    -1.657744     1.022415
 H     4.041658    -1.107321     0.314266
 C    -0.573256     8.761574     1.022813
 C    -1.218675     7.717607     1.928249
 H    -0.479686     7.378886     2.661646
 H    -2.033716     8.182326     2.499217
 C    -1.751454     6.495202     1.211813
 C    -2.028065     5.332248     1.939669
 H    -1.857096     5.329717     3.014064
 C    -2.512834     4.178254     1.333624
 H    -2.743209     3.299441     1.932930
 C    -2.717035     4.156591    -0.052138
 O    -3.168201     3.066945    -0.714924
 H    -3.239412     2.299574    -0.104238
 C    -2.457215     5.309518    -0.795985
 H    -2.615509     5.282539    -1.869572
 C    -1.985806     6.461163    -0.165606
 H    -1.779722     7.337100    -0.773283
 H     5.933403     2.998312     1.640200
 H     5.097266     4.540544     1.325224
 H     6.363122     3.964428     0.201656
 H    -1.254785    -3.286036    -2.689218
 H     0.490981    -3.107686    -2.597982
 C    -0.196377    -4.123400    -4.385782
 H    -1.059353    -4.124111    -5.059622
 H    -0.097982    -5.128598    -3.963873
 H     0.695660    -3.921042    -4.987001
 H    -5.659143    -1.939023     3.084438
 H    -5.077125    -0.738050     4.248596
 H    -5.938108    -2.183806     4.817174
 H    -5.223052     3.350353     1.111296
 H    -6.933405     3.155805     1.512262
 H    -6.450226     3.657424    -0.119906
 H     0.229827     8.306546     0.435355
 H    -0.145240     9.571018     1.620516
 H    -1.297645     9.208267     0.334388
 H     4.561481     0.298116     3.734040
 H     4.540624     1.892611     2.963884
 H     5.198135     0.483970     2.093144
 H    -4.062147    -7.170468    -2.176009
 H    -5.054695    -6.042318    -3.118880
 H    -5.137769    -6.034603    -1.350302
 H     5.912936    -3.934581     1.982229
 H     6.082432    -2.281084     2.592608
 H     7.498517    -3.354254     2.523936

eps=4.0



