%chk=1.chk
%nproc=28
%mem=32GB
#p PBE1PBE/6-311++G(d,p) SCRF=(CPCM,solvent=water,read) SCF=(Tight,MaxCycle=200)

x

0 1
 C     0.816220     0.679753     0.617530
 C     1.351205     1.729956     0.969063
 H     1.650798     2.583777     1.545099
 C     0.712942    -0.480219    -0.178379
 H     1.426178    -1.258313     0.104086
 H     1.472625     0.130104    -1.229617
 N    -0.455112    -1.032383    -0.691698
 C    -0.578203    -2.481836    -0.686551
 H     0.404502    -2.932649    -0.840601
 H    -1.250310    -2.783120    -1.492207
 H    -0.982827    -2.843357     0.267499
 C    -1.625771    -0.330150    -0.914967
 C    -2.912863    -0.792099    -0.728415
 C    -3.779685     0.238696    -1.217449
 H    -3.190870    -1.755224    -0.320285
 C    -2.950992     1.301525    -1.661216
 C    -5.175610     0.359769    -1.344849
 C    -3.475833     2.448900    -2.263488
 N    -1.638052     0.942429    -1.430007
 C    -4.852578     2.527985    -2.401350
 H    -2.819455     3.244224    -2.597460
 C    -5.696709     1.497460    -1.937628
 H    -5.290657     3.403938    -2.869507
 H    -6.771603     1.600318    -2.051462
 H    -0.818247     1.454080    -1.765475
 H    -5.826031    -0.437674    -0.993056
 C    -4.262602    -0.278989     5.123370
 C    -3.619128    -1.577811     4.637859
 H    -4.427892    -2.292132     4.417106
 C    -2.826342    -1.320860     3.354202
 H    -2.009955    -0.613424     3.551001
 H    -2.385613    -2.231562     2.933380
 H    -3.466713    -0.891697     2.574095
 C    -2.750986    -2.198357     5.738270
 H    -1.905374    -1.528593     5.946473
 H    -3.341808    -2.248845     6.660956
 C    -2.233550    -3.597495     5.409861
 H    -1.509091    -3.582712     4.588144
 H    -1.725670    -4.048796     6.266432
 H    -3.065081    -4.263206     5.139951
 C    -4.419367     4.526371     1.718470
 C    -4.838392     3.123588     1.287876
 H    -5.915860     3.094939     1.093763
 H    -4.347872     2.854439     0.345221
 C    -4.511963     2.067274     2.356297
 H    -5.011188     2.302805     3.299961
 H    -4.852553     1.081082     2.015193
 C    -3.023118     2.021660     2.631865
 O    -2.506464     2.427912     3.659298
 N    -2.258674     1.584294     1.567327
 H    -2.693157     0.928176     0.919452
 H    -1.296106     1.347806     1.797177
 C    -7.413719    -3.187637    -1.693519
 C    -5.952383    -3.409323    -2.078247
 H    -5.889946    -4.201694    -2.833393
 H    -5.569151    -2.500882    -2.566650
 C    -5.031558    -3.768921    -0.930486
 C    -3.836284    -4.454032    -1.186842
 H    -3.612343    -4.766739    -2.204309
 C    -2.928588    -4.746427    -0.176722
 H    -1.998327    -5.268160    -0.383835
 C    -3.213649    -4.355012     1.130069
 O    -2.271062    -4.632090     2.094587
 H    -2.629622    -4.450179     2.978450
 C    -4.407205    -3.704302     1.421868
 H    -4.637996    -3.418247     2.445018
 C    -5.304170    -3.416166     0.392558
 H    -6.228148    -2.903197     0.641745
 C    -2.651414    -2.565071    -3.844723
 C    -1.822699    -1.333216    -4.126109
 C    -0.428727    -1.358679    -4.014318
 H     0.063085    -2.289584    -3.734731
 C     0.331319    -0.215344    -4.251122
 H     1.411931    -0.245921    -4.146816
 C    -0.293867     0.974059    -4.620737
 H     0.295766     1.868827    -4.790172
 C    -1.680253     1.008302    -4.750752
 H    -2.179730     1.932416    -5.027141
 C    -2.436643    -0.132662    -4.495676
 H    -3.521606    -0.082847    -4.564061
 C     5.663623    -5.015224     2.029778
 C     5.826220    -4.764096     0.537213
 H     4.922715    -4.300851     0.132088
 H     6.003750    -5.697227    -0.005774
 S     7.216382    -3.624442     0.231966
 C     6.782119    -3.074231    -1.458199
 H     6.629390    -3.954241    -2.086314
 H     7.676502    -2.563794    -1.826225
 C     5.599134    -2.135562    -1.503358
 C     5.752141    -0.872621    -0.934908
 C     4.721738     0.071296    -0.964057
 H     6.699696    -0.631874    -0.465188
 C     4.373530    -2.498561    -2.099480
 C     4.151247    -3.851227    -2.731196
 H     3.109020    -3.959152    -3.040649
 H     4.779141    -3.984241    -3.618764
 H     4.383174    -4.671399    -2.044176
 C     3.357411    -1.548582    -2.133562
 H     2.400593    -1.787018    -2.594565
 C     3.517908    -0.269648    -1.600710
 N     2.467821     0.656951    -1.734182
 C     2.660753     1.875957    -1.206668
 C     1.662872     2.919483    -1.496934
 O     0.600498     2.703025    -2.068915
 N     2.019980     4.164448    -1.048116
 H     1.331384     4.909874    -1.139200
 C     3.224698     4.511268    -0.413326
 O     3.421316     5.673749    -0.107680
 N     4.146025     3.517854    -0.178631
 C     3.899283     2.295584    -0.574726
 N     4.872312     1.346781    -0.417570
 C     6.119855     1.686667     0.260348
 C     5.214351    -0.780002     3.038720
 C     3.803865    -0.354548     2.621050
 H     3.343319     0.239022     3.418381
 H     3.866149     0.308473     1.746574
 C     2.903361    -1.524232     2.295341
 C     1.656717    -1.681917     2.902867
 H     1.321724    -0.949200     3.633318
 C     0.816374    -2.746053     2.579717
 H    -0.157867    -2.837217     3.051893
 C     1.221549    -3.696046     1.640665
 O     0.449503    -4.750648     1.273424
 H    -0.418698    -4.710263     1.719637
 C     2.462827    -3.549838     1.014335
 H     2.752333    -4.280884     0.263602
 C     3.285673    -2.477241     1.343012
 H     4.242891    -2.365930     0.835829
 C     2.301242     8.683450     0.686523
 C     1.853494     7.627048     1.690050
 H     2.727813     7.047439     2.005407
 H     1.463950     8.117695     2.592018
 C     0.816530     6.652037     1.173883
 C     0.486932     5.528933     1.939692
 H     0.970662     5.387465     2.904331
 C    -0.443095     4.588206     1.509104
 H    -0.704165     3.742250     2.142316
 C    -1.061004     4.747205     0.263454
 O    -1.953287     3.860528    -0.234768
 H    -2.023065     3.077569     0.354267
 C    -0.765130     5.874061    -0.506233
 H    -1.261919     5.995866    -1.464155
 C     0.161498     6.810831    -0.049755
 H     0.383457     7.669696    -0.675918
 H     6.316098     0.948822     1.042491
 H     6.008449     2.673863     0.697852
 H     6.948651     1.692166    -0.453225
 H    -3.274507    -2.373840    -2.960148
 H    -1.982833    -3.393593    -3.579305
 C    -3.541770    -2.991183    -5.014617
 H    -4.262272    -2.208289    -5.269980
 H    -4.106824    -3.894817    -4.763346
 H    -2.941412    -3.200063    -5.905255
 H    -4.968102     0.107958     4.380954
 H    -3.501529     0.491894     5.290695
 H    -4.808944    -0.433404     6.059601
 H    -3.348347     4.574105     1.944490
 H    -4.961841     4.835719     2.618335
 H    -4.620474     5.254081     0.927565
 H     2.705844     8.203613    -0.209228
 H     3.082192     9.313567     1.120906
 H     1.474755     9.337407     0.389605
 H     5.176806    -1.451743     3.902341
 H     5.820878     0.089519     3.310578
 H     5.727525    -1.309103     2.226450
 H    -7.814986    -4.053013    -1.156758
 H    -8.020853    -3.027528    -2.588024
 H    -7.537552    -2.308416    -1.053645
 H     4.835594    -5.708582     2.202908
 H     5.444204    -4.081658     2.556560
 H     6.570485    -5.451677     2.458727

eps=4.0


