%chk=1.chk
%nproc=28
%mem=32GB
#p PBE1PBE/6-311++G(d,p) SCRF=(CPCM,solvent=water,read) SCF=(Tight,MaxCycle=200)

x

0 1
 C     2.731808    -1.390780     1.620907
 C     3.688451    -2.088056     1.859638
 H     4.535808    -2.705676     2.071096
 C     1.577856    -0.559767     1.282617
 H     1.410301    -0.605109     0.200537
 H     0.685931    -0.992134     1.754830
 N     1.725551     0.854571     1.679004
 C     0.861604     1.709711     0.829185
 H     1.318089     1.630388    -0.165567
 C    -0.598947     1.234092     0.722733
 H    -1.091931     1.295459     1.701984
 H    -0.626944     0.178843     0.411469
 C    -1.372268     2.044540    -0.290053
 C    -2.486562     2.796589     0.079179
 C    -3.200071     3.528644    -0.866717
 H    -2.809477     2.791214     1.113599
 C    -2.780127     3.546177    -2.195518
 H    -4.081608     4.082037    -0.559327
 C    -1.655912     2.810236    -2.577456
 H    -3.329259     4.126880    -2.933275
 C    -0.966325     2.052682    -1.630161
 H    -1.325695     2.814818    -3.612091
 H    -0.110705     1.448594    -1.928877
 C     0.890699     3.175357     1.265879
 H     0.335064     3.325193     2.198200
 H     0.407959     3.780743     0.493606
 H     1.908954     3.544221     1.400076
 C     1.515387     0.995062     3.120237
 H     0.473176     0.815241     3.425356
 H     2.150698     0.255274     3.619574
 H     1.820950     1.991475     3.445677
 C     1.901934     7.788452     1.214865
 C     0.825793     6.774351     0.827136
 H     1.323944     5.806703     0.685422
 C    -0.201917     6.614121     1.947585
 H    -0.769148     7.543072     2.087466
 H    -0.916144     5.813181     1.734088
 H     0.292509     6.375329     2.895480
 C     0.175878     7.171047    -0.505707
 H    -0.201485     8.201274    -0.417676
 H     0.962553     7.194112    -1.271699
 C    -0.965976     6.253811    -0.947176
 H    -0.691326     5.187346    -0.909188
 H    -1.849566     6.372561    -0.314906
 H    -1.268010     6.463696    -1.980227
 C     4.030305     3.165106    -3.087326
 C     2.822861     3.228961    -2.149214
 H     2.007142     2.623144    -2.559656
 H     3.086530     2.764476    -1.192195
 C     2.324206     4.655031    -1.957461
 H     2.102359     5.130361    -2.920800
 H     1.391164     4.687770    -1.372204
 C     3.314529     5.574584    -1.256806
 O     3.472888     6.744146    -1.599172
 N     3.988024     5.024627    -0.216006
 H     3.866089     4.060147     0.110682
 H     4.622524     5.622005     0.293453
 C    -5.958001     0.429086     2.971214
 C    -5.030221     1.520154     2.429050
 H    -4.611428     2.100334     3.261903
 H    -4.179853     1.036284     1.927782
 C    -5.712965     2.461898     1.464372
 C    -5.767374     3.836854     1.686749
 H    -5.307440     4.256049     2.578472
 C    -6.387246     4.698853     0.774923
 H    -6.422973     5.767183     0.970958
 C    -6.974585     4.178771    -0.377922
 O    -7.595983     4.959294    -1.311218
 H    -7.553687     5.886377    -1.032727
 C    -6.933703     2.804373    -0.615577
 H    -7.392806     2.410081    -1.516867
 C    -6.318621     1.963605     0.302887
 H    -6.298097     0.894559     0.102190
 C    -8.064558    -2.426116     0.317038
 C    -6.685532    -2.977142    -0.069822
 H    -6.211491    -3.435908     0.808173
 H    -6.821780    -3.771997    -0.820777
 C    -5.769875    -1.914881    -0.622106
 C    -4.687652    -1.451294     0.118584
 H    -4.492968    -1.872640     1.104479
 C    -3.860650    -0.442037    -0.372531
 H    -3.042523    -0.079780     0.252293
 C    -4.104491     0.126609    -1.621210
 H    -3.464734     0.921321    -1.996882
 C    -5.186054    -0.334766    -2.374055
 H    -5.394988     0.099411    -3.347671
 C    -6.007598    -1.344003    -1.875101
 H    -6.850662    -1.696911    -2.463447
 C    -3.403875    -5.336317     1.798348
 C    -3.372575    -5.174763     0.273101
 H    -2.790605    -4.283518    -0.016672
 H    -4.384531    -5.075078    -0.139320
 S    -2.550256    -6.615592    -0.481790
 C    -2.167848    -5.965574    -2.157023
 H    -3.096146    -5.683263    -2.652422
 H    -1.752357    -6.827453    -2.688630
 C    -1.161697    -4.826828    -2.152497
 C     0.177702    -5.125090    -1.859551
 C     1.133582    -4.106831    -1.761618
 H     0.454560    -6.154222    -1.678160
 C    -1.573304    -3.481414    -2.394185
 C    -2.977442    -3.117714    -2.812644
 H    -3.725794    -3.423893    -2.076078
 H    -3.074371    -2.037490    -2.944616
 H    -3.230751    -3.601390    -3.764578
 C    -0.626595    -2.489438    -2.278879
 H    -0.890460    -1.441524    -2.434346
 C     0.713122    -2.774908    -1.962668
 N     1.589494    -1.722999    -1.833881
 C     2.805593    -1.973208    -1.520689
 C     3.733505    -0.813025    -1.309197
 O     3.348590     0.340263    -1.297593
 N     5.041627    -1.188814    -1.138980
 H     5.719389    -0.445681    -0.946985
 C     5.504228    -2.495696    -0.919430
 O     6.683425    -2.666002    -0.646153
 N     4.613725    -3.550067    -1.018829
 C     3.362738    -3.307911    -1.316318
 N     2.471992    -4.344260    -1.444758
 C     2.924604    -5.719816    -1.212428
 C     0.877621    -6.103583     1.946516
 C     1.465229    -4.695007     2.113189
 H     2.151420    -4.674733     2.970303
 H     2.069036    -4.430233     1.234253
 C     0.387434    -3.657199     2.302397
 C    -0.511848    -3.372808     1.262475
 H    -0.438517    -3.918696     0.324086
 C    -1.514502    -2.416693     1.404923
 H    -2.199932    -2.203967     0.597487
 C    -1.652251    -1.735578     2.605564
 O    -2.661881    -0.818880     2.676968
 H    -2.660987    -0.389341     3.546653
 C    -0.774008    -2.002992     3.656421
 H    -0.875116    -1.466086     4.595983
 C     0.238116    -2.952996     3.497030
 H     0.921162    -3.140110     4.322534
 C     9.309995    -1.479245     1.376299
 C     8.931984    -0.434414     0.326115
 H     9.740400     0.308599     0.246391
 H     8.861602    -0.919520    -0.656228
 C     7.624420     0.296236     0.577735
 C     6.754919    -0.020467     1.626813
 H     7.009506    -0.814540     2.322878
 C     5.543154     0.647535     1.795263
 H     4.877168     0.381719     2.608310
 C     5.158310     1.643752     0.906193
 O     3.971426     2.296814     1.044627
 H     3.215034     1.644274     1.250020
 C     6.024690     1.998491    -0.140218
 H     5.719860     2.774401    -0.837787
 C     7.238561     1.328710    -0.291318
 H     7.897397     1.600471    -1.114750
 H     2.364323    -6.147284    -0.376211
 H     3.983888    -5.690185    -0.976071
 H     2.757256    -6.317757    -2.114010
 H    -3.963779    -6.228077     2.096965
 H    -3.881218    -4.465122     2.261535
 H    -2.382568    -5.411139     2.196066
 H     1.666584    -6.849149     1.815190
 H     0.209603    -6.148532     1.077321
 H     0.288649    -6.384566     2.826882
 H    -8.560867    -1.981972    -0.555640
 H    -7.974669    -1.648587     1.084607
 H    -8.709115    -3.219832     0.707462
 H    -5.417981    -0.246296     3.643782
 H    -6.355490    -0.173868     2.147993
 H    -6.802886     0.860707     3.516970
 H     2.413341     7.488038     2.137831
 H     1.459693     8.777963     1.387507
 H     2.647607     7.872389     0.418215
 H     4.404590     2.140681    -3.161846
 H     4.843946     3.800563    -2.715764
 H     3.770932     3.515883    -4.092848
 H    10.270035    -1.936840     1.123048
 H     8.556177    -2.275064     1.425232
 H     9.407578    -1.025409     2.372339

eps=4.0


