%nproc=28
%mem=32GB
#p PBE1PBE/6-311++G(d,p) SCRF=(CPCM,solvent=water,read) SCF=(Tight,MaxCycle=200)

x

0 1
 C    -0.968505    -1.227262     0.398138
 C    -1.452219    -2.153006    -0.391041
 H    -1.608031    -3.159685     0.008061
 C    -0.569052    -0.575147     1.474907
 H    -0.659562    -0.398341    -2.454311
 H    -1.326065    -0.102486     2.097085
 N     0.736663    -0.465952     1.968951
 C     1.800329    -0.660439     0.967572
 H     1.538446    -1.593123     0.449559
 C     1.814910     0.486833    -0.057587
 H     2.224911     1.392660     0.410263
 H     0.775350     0.704798    -0.338747
 C     2.606863     0.158614    -1.296545
 C     3.696409     0.939707    -1.682494
 C     4.396849     0.653341    -2.852848
 H     3.979472     1.786348    -1.065655
 C     4.014918    -0.426085    -3.648617
 H     5.240965     1.277637    -3.135544
 C     2.928205    -1.214803    -3.269490
 H     4.559625    -0.651594    -4.560488
 C     2.231954    -0.921395    -2.099639
 H     2.607878    -2.052089    -3.882692
 H     1.377437    -1.532488    -1.817581
 C     3.169126    -0.839132     1.605166
 H     3.511287     0.077088     2.099191
 H     3.893365    -1.062470     0.816322
 H     3.179054    -1.662186     2.328263
 C     0.925880     0.642013     2.906326
 H     0.923161     1.624036     2.413043
 H     0.113125     0.621215     3.635403
 H     1.867100     0.511162     3.441839
 C     6.966155    -3.606593     2.078289
 C     6.339858    -2.559283     1.158898
 H     5.249509    -2.692699     1.204464
 C     6.665500    -1.144053     1.640059
 H     7.744447    -0.953736     1.566886
 H     6.148661    -0.380166     1.048228
 H     6.370637    -1.009068     2.687176
 C     6.772601    -2.791946    -0.293126
 H     7.871197    -2.763118    -0.342833
 H     6.469893    -3.808414    -0.573683
 C     6.189474    -1.789403    -1.287345
 H     5.097423    -1.720967    -1.198919
 H     6.587812    -0.780040    -1.136320
 H     6.411024    -2.077298    -2.320060
 C     1.463861    -5.822179    -1.055577
 C     1.748429    -4.331417    -0.879448
 H     1.433503    -3.789030    -1.777212
 H     1.149723    -3.928943    -0.049682
 C     3.235330    -4.035714    -0.644373
 H     3.823707    -4.282999    -1.532923
 H     3.372058    -2.964035    -0.447457
 C     3.832263    -4.827333     0.507496
 O     4.804450    -5.561102     0.363728
 N     3.218152    -4.667517     1.705277
 H     2.380496    -4.109627     1.844962
 H     3.572089    -5.196197     2.490967
 C     3.467039     4.777442     3.158935
 C     3.223630     3.540118     2.288358
 H     3.311137     2.635388     2.902388
 H     2.196170     3.571682     1.903316
 C     4.189762     3.462862     1.130703
 C     5.314766     2.636338     1.167060
 H     5.485802     1.999372     2.032776
 C     6.228560     2.605673     0.114172
 H     7.093998     1.947943     0.157342
 C     6.019386     3.413254    -1.003481
 O     6.857030     3.411053    -2.080132
 H     7.579329     2.784538    -1.922229
 C     4.903369     4.252355    -1.057172
 H     4.746223     4.865795    -1.938959
 C     4.003818     4.270949     0.001487
 H     3.128523     4.917360    -0.053862
 C     1.358579     7.853884     0.869608
 C     0.256667     7.433075    -0.109788
 H    -0.715191     7.480852     0.394380
 H     0.219099     8.137800    -0.947232
 C     0.490850     6.036033    -0.631165
 C     0.183042     4.925341     0.162621
 H    -0.275138     5.064814     1.140114
 C     0.460014     3.634783    -0.282607
 H     0.211338     2.787736     0.352985
 C     1.048493     3.431943    -1.531604
 H     1.280698     2.428742    -1.878112
 C     1.349339     4.530489    -2.334130
 H     1.807179     4.382293    -3.307710
 C     1.073972     5.821117    -1.883781
 H     1.315958     6.676004    -2.510998
 C    -5.504213     3.998701     2.097841
 C    -5.230213     4.196696     0.613609
 H    -4.292440     3.705731     0.341836
 H    -5.152662     5.259207     0.362349
 S    -6.550777     3.444274    -0.392787
 C    -5.667368     3.320415    -1.992617
 H    -5.313225     4.315458    -2.271218
 H    -6.442199     3.039932    -2.712174
 C    -4.548289     2.307796    -2.011893
 C    -4.882070     0.949126    -1.950718
 C    -3.913088    -0.046086    -2.013935
 H    -5.930162     0.686269    -1.850509
 C    -3.198387     2.679875    -2.109780
 C    -2.755222     4.123270    -2.179274
 H    -3.111119     4.703613    -1.320971
 H    -1.663648     4.190241    -2.195929
 H    -3.137403     4.612312    -3.082020
 C    -2.230099     1.673707    -2.183282
 H    -1.182729     1.949120    -2.282894
 C    -2.564968     0.322673    -2.172380
 N    -1.636513    -0.672805    -2.420540
 C    -1.854251    -1.974702    -1.867259
 C    -1.018741    -2.981932    -2.666626
 O    -0.033844    -2.656052    -3.296032
 N    -1.435478    -4.268471    -2.503699
 H    -0.862963    -5.013401    -2.888579
 C    -2.716376    -4.641310    -2.028465
 O    -2.941561    -5.820414    -1.848791
 N    -3.661358    -3.651612    -1.877903
 C    -3.315204    -2.395661    -1.945066
 N    -4.250042    -1.426029    -1.981180
 C    -5.667110    -1.788123    -1.963602
 C    -6.132125    -0.088118     1.548284
 C    -4.752426    -0.601395     1.967321
 H    -4.856703    -1.252218     2.842789
 H    -4.328908    -1.222363     1.163720
 C    -3.783989     0.513107     2.285825
 C    -3.318056     1.352077     1.266850
 H    -3.671169     1.204507     0.250630
 C    -2.395907     2.359670     1.515716
 H    -2.030784     2.992857     0.710823
 C    -1.918890     2.555378     2.812666
 O    -0.979744     3.528904     2.995563
 H    -0.727635     3.568973     3.930746
 C    -2.391199     1.752828     3.851824
 H    -2.028927     1.906798     4.865721
 C    -3.313788     0.740685     3.580891
 H    -3.660882     0.110885     4.396510
 C    -5.477710    -4.357447     1.130422
 C    -4.374852    -5.413175     1.208003
 H    -4.693119    -6.222847     1.878340
 H    -4.240071    -5.862369     0.218318
 C    -3.031221    -4.880225     1.661656
 C    -2.914297    -3.736707     2.456550
 H    -3.807290    -3.219951     2.791472
 C    -1.673774    -3.219933     2.819936
 H    -1.610271    -2.312711     3.415901
 C    -0.509662    -3.839891     2.371211
 O     0.734740    -3.311727     2.604579
 H     0.678582    -2.334528     2.697647
 C    -0.599392    -5.031387     1.650625
 H     0.313644    -5.535417     1.348080
 C    -1.848324    -5.532159     1.291905
 H    -1.905367    -6.431288     0.682959
 H    -6.129843    -1.417599    -1.044033
 H    -5.746053    -2.870193    -2.003943
 H    -6.164590    -1.342233    -2.827655
 H    -6.461732     4.440240     2.390600
 H    -4.714070     4.473823     2.687261
 H    -5.519029     2.932809     2.345444
 H    -6.799990    -0.920132     1.300290
 H    -6.057199     0.572864     0.677603
 H    -6.592856     0.487471     2.358025
 H     2.339341     7.816668     0.384131
 H     1.384394     7.177916     1.730607
 H     1.194450     8.870666     1.237760
 H     2.745945     4.831208     3.980347
 H     3.372569     5.689751     2.560881
 H     4.474957     4.759042     3.584994
 H     6.639015    -3.468854     3.114963
 H     8.060672    -3.530638     2.059607
 H     6.681370    -4.613532     1.757688
 H     0.388639    -6.013888    -1.141045
 H     1.833051    -6.402675    -0.202089
 H     1.956830    -6.208593    -1.953773
 H    -6.380848    -4.781672     0.682547
 H    -5.153168    -3.515346     0.508890
 H    -5.750599    -3.969704     2.117430

eps=4.0




