%chk=1.chk
%nproc=28
%mem=32GB
#p PBE1PBE/6-311++G(d,p) SCRF=(CPCM,solvent=water,read) SCF=(Tight,MaxCycle=200)

x

0 1
 C    -1.044242    -1.349789     0.303296
 C    -1.735838    -2.416435    -0.072837
 H    -1.972187    -3.319486     0.487033
 C    -0.539992    -0.913431     1.543928
 H    -1.080750    -0.731744    -0.849085
 H    -1.237279    -0.734270     2.364199
 N     0.702100    -0.557185     1.773581
 C     1.709545    -0.640286     0.688799
 H     1.454157    -1.537002     0.115735
 C     1.568542     0.593108    -0.223386
 H     1.939095     1.478243     0.312622
 H     0.507104     0.752207    -0.447503
 C     2.344514     0.405265    -1.501853
 C     3.629483     0.938089    -1.623467
 C     4.372118     0.743674    -2.785757
 H     4.044844     1.509700    -0.795988
 C     3.831925     0.001493    -3.835268
 H     5.367089     1.174539    -2.862558
 C     2.549455    -0.535180    -3.718147
 H     4.406184    -0.155862    -4.743178
 C     1.802647    -0.334755    -2.557880
 H     2.125087    -1.115011    -4.532905
 H     0.802515    -0.762501    -2.472737
 C     3.125623    -0.768774     1.234553
 H     3.432395     0.137094     1.769553
 H     3.815567    -0.895899     0.395599
 H     3.249550    -1.634016     1.892384
 C     1.058006     0.136753     3.010920
 H     1.328178     1.174366     2.785678
 H     0.195886     0.130073     3.677370
 H     1.899944    -0.357955     3.497401
 C     7.279286    -2.840503     2.337764
 C     6.654808    -1.675621     1.572890
 H     5.711931    -2.032883     1.140059
 C     6.335287    -0.511086     2.510979
 H     7.250472    -0.140873     2.990783
 H     5.875088     0.324250     1.972107
 H     5.642029    -0.817886     3.302983
 C     7.557395    -1.235444     0.413273
 H     8.387140    -0.636039     0.816464
 H     7.999058    -2.125915    -0.047605
 C     6.807578    -0.457109    -0.664898
 H     6.089334    -1.114886    -1.166955
 H     6.244935     0.388481    -0.250684
 H     7.486344    -0.065297    -1.430924
 C     2.521205    -5.156521    -2.131554
 C     2.572346    -3.670047    -1.788683
 H     2.044960    -3.103838    -2.558513
 H     2.011646    -3.479511    -0.860878
 C     3.994229    -3.121346    -1.681860
 H     4.525779    -3.249625    -2.630378
 H     3.959462    -2.036805    -1.497375
 C     4.883844    -3.738238    -0.614276
 O     6.095849    -3.849832    -0.770185
 N     4.274121    -4.115238     0.536428
 H     3.281537    -4.013191     0.712384
 H     4.855208    -4.487756     1.275463
 C     2.105624     5.326059     2.447515
 C     2.500577     3.868804     2.196242
 H     2.741259     3.381588     3.149411
 H     1.625459     3.346036     1.789285
 C     3.676026     3.715745     1.256725
 C     4.819446     3.009653     1.633783
 H     4.873524     2.568364     2.627043
 C     5.905933     2.863714     0.770769
 H     6.791653     2.318632     1.090736
 C     5.850065     3.412820    -0.509130
 O     6.854137     3.261756    -1.418919
 H     7.549274     2.702665    -1.039814
 C     4.723761     4.140312    -0.901059
 H     4.692656     4.564422    -1.899851
 C     3.657495     4.288513    -0.023322
 H     2.785382     4.851284    -0.346310
 C    -0.396642     8.004411     0.702803
 C    -1.212087     7.288936    -0.379649
 H    -2.205052     7.044067     0.016863
 H    -1.366441     7.961731    -1.229839
 C    -0.535672     6.024438    -0.853045
 C    -0.515443     4.887695    -0.036723
 H    -1.004862     4.907471     0.936308
 C     0.122126     3.723858    -0.455512
 H     0.123780     2.858363     0.199097
 C     0.754144     3.669478    -1.698849
 H     1.256658     2.761332    -2.022259
 C     0.747708     4.798310    -2.515100
 H     1.237872     4.772522    -3.483819
 C     0.108219     5.964348    -2.091536
 H     0.102593     6.840433    -2.735775
 C    -4.975019     3.934913     2.181536
 C    -4.897538     4.020972     0.662933
 H    -4.064460     3.414346     0.297045
 H    -4.745716     5.054561     0.334547
 S    -6.422675     3.370816    -0.094347
 C    -5.829278     3.085404    -1.811445
 H    -5.505055     4.041690    -2.227959
 H    -6.728971     2.780941    -2.354216
 C    -4.756543     2.033972    -1.917862
 C    -5.117244     0.692494    -1.770188
 C    -4.172751    -0.329135    -1.810051
 H    -6.163891     0.463433    -1.594835
 C    -3.405015     2.356130    -2.141773
 C    -2.952928     3.777805    -2.381390
 H    -3.195430     4.438834    -1.542123
 H    -1.871014     3.818868    -2.528131
 H    -3.432322     4.197858    -3.273043
 C    -2.468479     1.325060    -2.179988
 H    -1.417774     1.556478    -2.348562
 C    -2.806340    -0.029157    -2.011223
 N    -1.808523    -0.974501    -2.019435
 C    -2.178752    -2.287760    -1.581167
 C    -1.346469    -3.355824    -2.302578
 O    -0.289387    -3.128166    -2.849832
 N    -1.849852    -4.624348    -2.164428
 H    -1.274375    -5.403046    -2.466878
 C    -3.131389    -4.941782    -1.678022
 O    -3.402958    -6.109922    -1.459823
 N    -4.036489    -3.920074    -1.542136
 C    -3.641842    -2.674742    -1.629345
 N    -4.553358    -1.687517    -1.663902
 C    -5.976917    -2.007363    -1.596581
 C    -6.128521    -0.281533     1.934128
 C    -4.748152    -0.885327     2.210255
 H    -4.795972    -1.542150     3.086047
 H    -4.448544    -1.514061     1.359242
 C    -3.697166     0.176727     2.428701
 C    -3.245626     0.942842     1.347957
 H    -3.663779     0.774767     0.359608
 C    -2.260127     1.907778     1.498848
 H    -1.919781     2.481554     0.641884
 C    -1.712782     2.146674     2.760290
 O    -0.727461     3.090121     2.847272
 H    -0.458777     3.202355     3.772201
 C    -2.169734     1.421489     3.861136
 H    -1.756319     1.612879     4.848909
 C    -3.151927     0.442813     3.686425
 H    -3.489191    -0.125882     4.549622
 C    -4.639018    -5.309408     1.693696
 C    -3.467071    -6.284193     1.843279
 H    -3.577588    -6.846524     2.779058
 H    -3.496501    -7.008426     1.024070
 C    -2.124665    -5.589151     1.834369
 C    -1.796520    -4.656492     2.824863
 H    -2.509508    -4.441333     3.617317
 C    -0.570918    -3.996888     2.823846
 H    -0.330423    -3.277606     3.604330
 C     0.352344    -4.268940     1.815274
 O     1.564126    -3.625581     1.754961
 H     1.704710    -3.133390     2.578272
 C     0.056800    -5.196986     0.822467
 H     0.789833    -5.400391     0.046880
 C    -1.174757    -5.847421     0.840866
 H    -1.415122    -6.560219     0.056823
 H    -6.411159    -1.557918    -0.698744
 H    -6.086229    -3.086430    -1.558150
 H    -6.482352    -1.609417    -2.479794
 H    -5.829123     4.497194     2.571347
 H    -4.062708     4.349121     2.622725
 H    -5.064725     2.892269     2.503375
 H    -6.875960    -1.064303     1.770354
 H    -6.098108     0.362616     1.047737
 H    -6.457004     0.334098     2.778098
 H     0.597572     8.265132     0.326123
 H    -0.264544     7.359790     1.577889
 H    -0.893613     8.922989     1.027741
 H     1.243125     5.382706     3.119677
 H     1.824576     5.819910     1.511853
 H     2.932433     5.886146     2.895096
 H     6.651240    -3.147202     3.182451
 H     8.262448    -2.561686     2.737541
 H     7.410061    -3.699345     1.671383
 H     1.486413    -5.479049    -2.284415
 H     2.962012    -5.772109    -1.339463
 H     3.072597    -5.357962    -3.056269
 H    -5.592756    -5.844444     1.730385
 H    -4.578943    -4.782808     0.736130
 H    -4.641167    -4.565764     2.497968

eps=4.0

