%chk=1.chk
%nproc=28
%mem=32GB
#p PBE1PBE/6-311++G(d,p) SCRF=(CPCM,solvent=water,read) SCF=(Tight,MaxCycle=200)

x

0 1
 C     3.280337     1.239905    -1.115574
 C     4.505615     1.168161    -1.287220
 H     5.518944     1.503953    -1.168872
 C     1.986126     0.758336    -1.280168
 H     1.459993     0.406351    -0.390675
 H     2.468129    -0.468519    -1.837113
 N     1.141578     1.355324    -2.267819
 H     1.536196     1.274333    -3.203914
 C    -0.229619     1.121460    -2.158718
 C    -0.996488     1.077723    -1.022451
 C    -2.348674     0.877883    -1.447510
 H    -0.638053     1.224339    -0.016303
 C    -2.340497     0.823773    -2.861570
 C    -3.567770     0.744744    -0.764459
 C    -3.508348     0.650418    -3.606847
 N    -1.025395     0.971674    -3.271282
 C    -4.699770     0.521838    -2.904219
 H    -3.485339     0.613791    -4.691782
 C    -4.730639     0.566348    -1.496043
 H    -5.627564     0.374527    -3.449132
 H    -5.680847     0.447425    -0.981436
 H    -0.698697     0.936686    -4.226387
 H    -3.590889     0.785862     0.322157
 C    -6.263246     3.661197     3.219021
 C    -6.149800     2.169083     2.906108
 H    -6.744880     1.607202     3.642829
 C    -6.698337     1.879957     1.508009
 H    -7.746384     2.188001     1.424138
 H    -6.115091     2.436356     0.763937
 H    -6.648197     0.814564     1.258450
 C    -4.692890     1.708780     3.036148
 H    -4.110864     2.215181     2.250001
 H    -4.292919     2.056907     3.997777
 C    -4.515917     0.193793     2.940180
 H    -5.137414    -0.315978     3.686706
 H    -4.808651    -0.186324     1.954778
 H    -3.477613    -0.107437     3.115142
 C    -1.558088     5.663066    -2.311239
 C    -2.171945     4.283927    -2.545349
 H    -2.345580     4.135819    -3.617663
 H    -1.465852     3.499284    -2.247594
 C    -3.503923     4.086747    -1.823266
 H    -4.211615     4.874954    -2.103200
 H    -3.961293     3.135178    -2.123198
 C    -3.483381     4.075030    -0.302218
 O    -4.510986     4.277940     0.340351
 N    -2.305299     3.805994     0.308325
 H    -1.432185     3.646905    -0.184930
 H    -2.300894     3.801686     1.319206
 C    -5.143368    -4.477831    -2.752366
 C    -4.993366    -2.967599    -2.547600
 H    -3.992173    -2.749233    -2.155099
 H    -5.073608    -2.452422    -3.512032
 C    -6.026559    -2.414344    -1.598115
 C    -5.813963    -2.461512    -0.219472
 H    -4.889902    -2.897675     0.153147
 C    -6.742915    -1.945793     0.679436
 H    -6.554827    -1.986183     1.750865
 C    -7.916635    -1.361650     0.198628
 O    -8.859912    -0.821198     1.022294
 H    -8.545311    -0.860676     1.937979
 C    -8.155077    -1.314265    -1.175130
 H    -9.071871    -0.856721    -1.532925
 C    -7.216575    -1.843378    -2.055822
 H    -7.406116    -1.793408    -3.126035
 C    -3.559147    -4.086535     2.504817
 C    -2.770275    -2.969836     1.829457
 H    -3.379476    -2.057661     1.794266
 H    -1.901441    -2.707349     2.447934
 C    -2.289447    -3.260024     0.422175
 C    -1.660248    -2.232272    -0.293452
 H    -1.539820    -1.258203     0.176082
 C    -1.204184    -2.437101    -1.591679
 H    -0.736460    -1.614363    -2.129991
 C    -1.349551    -3.688899    -2.195952
 H    -0.988994    -3.855319    -3.206611
 C    -1.973614    -4.716675    -1.495264
 H    -2.102799    -5.690774    -1.958189
 C    -2.448950    -4.500741    -0.199180
 H    -2.942568    -5.313691     0.325791
 C     2.284362    -2.357353     5.085939
 C     2.280892    -3.453858     4.030110
 H     1.938347    -3.046888     3.075821
 H     1.616513    -4.275750     4.314386
 S     3.963368    -4.113443     3.788267
 C     3.713747    -5.007161     2.208128
 H     2.854569    -5.673020     2.314669
 H     4.603353    -5.632623     2.095648
 C     3.568996    -4.083073     1.024050
 C     4.710508    -3.425510     0.568717
 C     4.658149    -2.532887    -0.504488
 H     5.651835    -3.620721     1.070619
 C     2.328721    -3.865927     0.388984
 C     1.074462    -4.613557     0.769753
 H     0.787834    -4.449153     1.814486
 H     0.241267    -4.294795     0.139631
 H     1.203031    -5.693381     0.636487
 C     2.280078    -2.948398    -0.655631
 H     1.335117    -2.745633    -1.153577
 C     3.413589    -2.271991    -1.102765
 N     3.284397    -1.368910    -2.173058
 C     4.401873    -0.728680    -2.540685
 C     4.293908     0.111246    -3.760608
 O     3.222627     0.465583    -4.228366
 N     5.500997     0.488023    -4.272676
 H     5.498356     1.098872    -5.083044
 C     6.774529     0.155788    -3.755058
 O     7.754915     0.608753    -4.311195
 N     6.841168    -0.662300    -2.653079
 C     5.742728    -1.108557    -2.098897
 N     5.816392    -1.947397    -1.032942
 C     7.116346    -2.298011    -0.464679
 C     5.144931     0.413600     3.401155
 C     4.532913     0.713900     2.029828
 H     4.802690     1.728488     1.711366
 H     4.952977     0.026725     1.283784
 C     3.029525     0.583671     2.034432
 C     2.421111    -0.666474     1.885681
 H     3.048534    -1.543607     1.733340
 C     1.035736    -0.813010     1.919394
 H     0.561827    -1.781103     1.770080
 C     0.232590     0.309255     2.127114
 O    -1.121480     0.123092     2.158980
 H    -1.564795     0.974120     2.302345
 C     0.818863     1.568931     2.258453
 H     0.195688     2.450752     2.392559
 C     2.205018     1.697127     2.212708
 H     2.647704     2.687099     2.307534
 C     4.899806     4.533661     3.804227
 C     4.468559     5.713406     2.924448
 H     4.064917     6.512215     3.556167
 H     5.345094     6.124611     2.411365
 C     3.432266     5.294041     1.910281
 C     2.064793     5.403339     2.184755
 H     1.743665     5.864690     3.115755
 C     1.105785     4.924832     1.297886
 H     0.045015     5.010701     1.516098
 C     1.508376     4.311121     0.111356
 O     0.540418     3.800292    -0.702263
 H     0.929156     3.222954    -1.390275
 C     2.863354     4.242850    -0.208662
 H     3.171708     3.808495    -1.154837
 C     3.809851     4.719158     0.694067
 H     4.866113     4.640383     0.444564
 H     7.881592    -1.763760    -1.019094
 H     7.278195    -3.375244    -0.550045
 H     7.144087    -2.005102     0.587937
 H     4.725527     1.075836     4.165908
 H     6.230742     0.549228     3.387470
 H     4.935358    -0.620692     3.695864
 H     2.894194    -1.509482     4.760147
 H     2.674872    -2.722688     6.040353
 H     1.263945    -1.998846     5.248931
 H    -4.451421    -4.355162     1.928170
 H    -3.886265    -3.769632     3.498755
 H    -2.953483    -4.990701     2.623670
 H    -5.041689    -5.004853    -1.797581
 H    -4.375793    -4.861214    -3.432125
 H    -6.127256    -4.717513    -3.169353
 H    -7.300943     4.003273     3.141289
 H    -5.659978     4.231050     2.504219
 H    -5.908274     3.882878     4.231767
 H    -1.362681     5.833558    -1.247840
 H    -2.234288     6.450444    -2.661617
 H    -0.608021     5.768510    -2.842898
 H     4.038114     4.114392     4.334618
 H     5.644087     4.840133     4.545148
 H     5.334963     3.736178     3.191703

eps=4.0

--Link1--
%chk=1.chk
%nproc=28
%mem=32GB
#p B3LYP/6-311++G(d,p) SCRF=(CPCM,solvent=water,read) SCF=(Tight,MaxCycle=200)
#p GUESS=Read GEOM=CheckPoint

x

0 1

eps=4.0

--Link1--
%chk=1.chk
%nosave
%nproc=28
%mem=32GB
#p M062X/6-311++G(d,p) SCRF=(CPCM,solvent=water,read) SCF=(Tight,MaxCycle=200)
#p GUESS=Read GEOM=CheckPoint

x

0 1

eps=4.0


