%chk=1.chk
%nproc=28
%mem=32GB
#p PBE1PBE/6-311++G(d,p) SCRF=(CPCM,solvent=water,read) SCF=(Tight,MaxCycle=200)

x

0 1
 C     1.968083     0.068177    -1.644320
 C     3.083879     0.628553    -2.087872
 H     3.263081     1.674428    -2.328941
 C     0.652385     0.490533    -1.367202
 H     0.340038     0.870907    -0.392052
 H     2.292933    -1.110289    -1.610255
 N    -0.304911     0.292467    -2.259200
 H    -0.006170    -0.030801    -3.178814
 C    -1.687787     0.328361    -2.023476
 C    -2.387846     0.209322    -0.851665
 C    -3.772509     0.253726    -1.219788
 H    -1.978793     0.057566     0.139454
 C    -3.835849     0.384957    -2.626782
 C    -4.969523     0.164085    -0.488463
 C    -5.048353     0.431770    -3.323823
 N    -2.540820     0.442793    -3.096631
 C    -6.209378     0.340734    -2.574799
 H    -5.073983     0.531788    -4.404316
 C    -6.170581     0.211030    -1.169210
 H    -7.170055     0.369012    -3.079338
 H    -7.101834     0.131988    -0.616329
 H    -2.270514     0.561208    -4.063239
 H    -4.945919     0.044973     0.590227
 C    -5.726328     2.699950     4.084056
 C    -5.885083     1.221561     3.728772
 H    -6.249710     0.682964     4.615961
 C    -6.910465     1.063544     2.602827
 H    -7.879415     1.474752     2.904873
 H    -6.576815     1.617781     1.716256
 H    -7.069223     0.016009     2.322486
 C    -4.530328     0.609040     3.348885
 H    -4.196288     1.077840     2.407660
 H    -3.793127     0.877980     4.119368
 C    -4.564210    -0.910999     3.198516
 H    -4.865672    -1.379154     4.142325
 H    -5.278664    -1.219675     2.428962
 H    -3.585493    -1.313332     2.918035
 C    -3.051563     5.126783    -2.256503
 C    -3.762128     3.782481    -2.394619
 H    -4.108351     3.650368    -3.426555
 H    -3.060683     2.959617    -2.212349
 C    -4.971387     3.641624    -1.473044
 H    -5.677494     4.462469    -1.637523
 H    -5.510532     2.714753    -1.702362
 C    -4.718083     3.607007     0.025418
 O    -5.614624     3.877208     0.819031
 N    -3.483182     3.236648     0.443698
 H    -2.724448     2.989871    -0.182400
 H    -3.332522     3.167698     1.441176
 C    -2.569039    -4.359681    -3.157833
 C    -3.211367    -2.994340    -2.891667
 H    -2.421882    -2.275692    -2.631971
 H    -3.698222    -2.620242    -3.800216
 C    -4.213989    -3.049044    -1.765138
 C    -3.764440    -3.166401    -0.447946
 H    -2.693686    -3.195394    -0.261138
 C    -4.648919    -3.235744     0.620697
 H    -4.275709    -3.329360     1.638311
 C    -6.022960    -3.172220     0.381430
 O    -6.942573    -3.176824     1.393351
 H    -6.483900    -3.289815     2.239485
 C    -6.495064    -3.084140    -0.925498
 H    -7.566302    -3.040485    -1.095793
 C    -5.591576    -3.022740    -1.983771
 H    -5.969815    -2.932532    -2.999392
 C    -1.698122    -4.995934     1.884394
 C    -0.751261    -3.867018     1.468307
 H    -1.279043    -2.905190     1.509663
 H     0.059606    -3.796668     2.207712
 C    -0.148624    -4.039018     0.088906
 C    -0.062001    -2.957966    -0.796701
 H    -0.462004    -1.991041    -0.489644
 C     0.513306    -3.108891    -2.056715
 H     0.587267    -2.262740    -2.733840
 C     1.017568    -4.343027    -2.458050
 H     1.477004    -4.451196    -3.435271
 C     0.931972    -5.428906    -1.590589
 H     1.319704    -6.397711    -1.890491
 C     0.351873    -5.276632    -0.332252
 H     0.296213    -6.133985     0.333395
 C     2.202714    -0.374443     5.057725
 C     2.884836    -1.646129     4.570039
 H     2.653828    -1.813910     3.513860
 H     2.549660    -2.517322     5.141792
 S     4.695176    -1.493721     4.718306
 C     5.224141    -2.815092     3.556247
 H     4.845892    -3.771558     3.923859
 H     6.313154    -2.835467     3.660343
 C     4.828426    -2.570164     2.123674
 C     5.484238    -1.565217     1.408622
 C     5.158205    -1.276269     0.086817
 H     6.257217    -0.997768     1.918312
 C     3.826075    -3.319776     1.478250
 C     3.106811    -4.451448     2.174831
 H     2.624090    -4.123948     3.102518
 H     2.335825    -4.867689     1.521023
 H     3.795093    -5.261988     2.439811
 C     3.501675    -3.019460     0.158545
 H     2.722858    -3.582706    -0.351309
 C     4.125933    -1.987903    -0.570200
 N     3.706511    -1.714529    -1.844748
 C     4.168784    -0.470146    -2.383725
 C     4.143580    -0.538491    -3.920125
 O     3.372526    -1.240839    -4.537540
 N     4.972728     0.364193    -4.530046
 H     4.905319     0.463052    -5.537421
 C     5.958525     1.148234    -3.895538
 O     6.545549     1.983447    -4.556878
 N     6.243705     0.889745    -2.578927
 C     5.505784     0.052266    -1.895804
 N     5.881946    -0.308223    -0.655470
 C     7.090098     0.259323    -0.063950
 C     4.580246     2.012651     2.472126
 C     3.718054     1.898895     1.211024
 H     3.612654     2.883882     0.740570
 H     4.215970     1.247200     0.483096
 C     2.346781     1.350194     1.513438
 C     2.114195    -0.027857     1.567987
 H     2.929790    -0.716592     1.365520
 C     0.857265    -0.540088     1.870435
 H     0.689462    -1.612703     1.906669
 C    -0.198333     0.333007     2.140555
 O    -1.417926    -0.217997     2.426152
 H    -2.048562     0.482488     2.659045
 C     0.009427     1.712024     2.088918
 H    -0.810113     2.398571     2.290705
 C     1.278295     2.205975     1.785184
 H     1.436626     3.281662     1.750054
 C     3.858618     5.796389     2.157519
 C     3.033832     6.609942     1.153125
 H     2.558525     7.453099     1.665586
 H     3.699233     7.032514     0.392183
 C     1.976449     5.759441     0.492132
 C     0.664226     5.731447     0.974374
 H     0.386961     6.380775     1.801139
 C    -0.295999     4.890089     0.419415
 H    -1.315472     4.870103     0.793804
 C     0.062037     4.049749    -0.630822
 O    -0.885366     3.174291    -1.105556
 H    -0.681681     2.936828    -2.023854
 C     1.355853     4.071258    -1.144247
 H     1.619526     3.422290    -1.976530
 C     2.299612     4.926695    -0.583443
 H     3.310576     4.938365    -0.985130
 H     7.572103     0.890369    -0.803798
 H     7.760370    -0.548347     0.239143
 H     6.823221     0.854926     0.814449
 H     4.091425     2.651845     3.216160
 H     5.559506     2.447890     2.244851
 H     4.733322     1.025695     2.924024
 H     2.492869     0.478926     4.436277
 H     2.463582    -0.155404     6.097788
 H     1.115991    -0.487073     4.993733
 H    -2.486196    -5.142057     1.138904
 H    -2.170131    -4.763189     2.843442
 H    -1.166130    -5.944034     2.001693
 H    -2.052604    -4.720778    -2.260571
 H    -1.831816    -4.301116    -3.964579
 H    -3.329832    -5.096843    -3.434505
 H    -6.677804     3.125348     4.420444
 H    -5.406222     3.264794     3.200731
 H    -4.990696     2.841534     4.883441
 H    -2.698212     5.284483    -1.232486
 H    -3.730850     5.948001    -2.508486
 H    -2.183549     5.190596    -2.920138
 H     3.209559     5.360543     2.924626
 H     4.606795     6.421210     2.653697
 H     4.379811     4.974615     1.654634

eps=4.0

--Link1--
%chk=1.chk
%nproc=28
%mem=32GB
#p B3LYP/6-311++G(d,p) SCRF=(CPCM,solvent=water,read) SCF=(Tight,MaxCycle=200)
#p GUESS=Read GEOM=CheckPoint

x

0 1

eps=4.0

--Link1--
%chk=1.chk
%nosave
%nproc=28
%mem=32GB
#p M062X/6-311++G(d,p) SCRF=(CPCM,solvent=water,read) SCF=(Tight,MaxCycle=200)
#p GUESS=Read GEOM=CheckPoint

x

0 1

eps=4.0

